p cnf 543 412
c p distribution  0.875 0.125
c p distribution  0.875 0.125
c p distribution  0.875 0.125
c p distribution  0.875 0.125
c p distribution  0.875 0.125
c p distribution  0.875 0.125
c p distribution  0.875 0.125
c p distribution  0.875 0.125
c p distribution  0.875 0.125
c p distribution  0.875 0.125
c p distribution  0.875 0.125
c p distribution  0.875 0.125
c p distribution  0.875 0.125
c p distribution  0.875 0.125
c p distribution  0.875 0.125
c p distribution  0.875 0.125
c p distribution  0.875 0.125
c p distribution  0.875 0.125
c p distribution  0.875 0.125
c p distribution  0.875 0.125
c p distribution  0.875 0.125
c p distribution  0.875 0.125
c p distribution  0.875 0.125
c p distribution  0.875 0.125
c p distribution  0.875 0.125
c p distribution  0.875 0.125
c p distribution  0.875 0.125
c p distribution  0.875 0.125
c p distribution  0.875 0.125
c p distribution  0.875 0.125
c p distribution  0.875 0.125
c p distribution  0.875 0.125
c p distribution  0.875 0.125
c p distribution  0.875 0.125
c p distribution  0.875 0.125
c p distribution  0.875 0.125
c p distribution  0.875 0.125
c p distribution  0.875 0.125
c p distribution  0.875 0.125
c p distribution  0.875 0.125
c p distribution  0.875 0.125
c p distribution  0.875 0.125
c p distribution  0.875 0.125
c p distribution  0.875 0.125
c p distribution  0.875 0.125
c p distribution  0.875 0.125
c p distribution  0.875 0.125
c p distribution  0.875 0.125
c p distribution  0.875 0.125
c p distribution  0.875 0.125
c p distribution  0.875 0.125
c p distribution  0.875 0.125
c p distribution  0.875 0.125
c p distribution  0.875 0.125
c p distribution  0.875 0.125
c p distribution  0.875 0.125
c p distribution  0.875 0.125
c p distribution  0.875 0.125
c p distribution  0.875 0.125
c p distribution  0.875 0.125
c p distribution  0.875 0.125
c p distribution  0.875 0.125
c p distribution  0.875 0.125
c p distribution  0.875 0.125
c p distribution  0.875 0.125
c p distribution  0.875 0.125
c p distribution  0.875 0.125
c p distribution  0.875 0.125
c p distribution  0.875 0.125
c p distribution  0.875 0.125
c p distribution  0.875 0.125
c p distribution  0.875 0.125
c p distribution  0.875 0.125
c p distribution  0.875 0.125
c p distribution  0.875 0.125
c p distribution  0.875 0.125
c p distribution  0.875 0.125
c p distribution  0.875 0.125
c p distribution  0.875 0.125
c p distribution  0.875 0.125
c p distribution  0.875 0.125
c p distribution  0.875 0.125
c p distribution  0.875 0.125
c p distribution  0.875 0.125
c p distribution  0.875 0.125
c p distribution  0.875 0.125
c p distribution  0.875 0.125
c p distribution  0.875 0.125
c p distribution  0.875 0.125
c p distribution  0.875 0.125
c p distribution  0.875 0.125
c p distribution  0.875 0.125
c p distribution  0.875 0.125
c p distribution  0.875 0.125
c p distribution  0.875 0.125
c p distribution  0.875 0.125
c p distribution  0.875 0.125
c p distribution  0.875 0.125
c p distribution  0.875 0.125
c p distribution  0.875 0.125
c p distribution  0.875 0.125
c p distribution  0.875 0.125
c p distribution  0.875 0.125
c p distribution  0.875 0.125
c p distribution  0.875 0.125
c p distribution  0.875 0.125
c p distribution  0.875 0.125
c p distribution  0.875 0.125
c p distribution  0.875 0.125
c p distribution  0.875 0.125
c p distribution  0.875 0.125
c p distribution  0.875 0.125
c p distribution  0.875 0.125
c p distribution  0.875 0.125
c p distribution  0.875 0.125
c p distribution  0.875 0.125
c p distribution  0.875 0.125
c p distribution  0.875 0.125
c p distribution  0.875 0.125
c p distribution  0.875 0.125
c p distribution  0.875 0.125
c p distribution  0.875 0.125
c p distribution  0.875 0.125
c p distribution  0.875 0.125
c p distribution  0.875 0.125
c p distribution  0.875 0.125
c p distribution  0.875 0.125
c p distribution  0.875 0.125
c p distribution  0.875 0.125
c p distribution  0.875 0.125
c p distribution  0.875 0.125
c p distribution  0.875 0.125
c p distribution  0.875 0.125
c p distribution  0.875 0.125
c p distribution  0.875 0.125
c p distribution  0.875 0.125
c p distribution  0.875 0.125
c p distribution  0.875 0.125
c p distribution  0.875 0.125
c p distribution  0.875 0.125
c p distribution  0.875 0.125
c p distribution  0.875 0.125
c p distribution  0.875 0.125
c p distribution  0.875 0.125
c p distribution  0.875 0.125
c p distribution  0.875 0.125
c p distribution  0.875 0.125
c p distribution  0.875 0.125
c p distribution  0.875 0.125
c p distribution  0.875 0.125
c p distribution  0.875 0.125
c p distribution  0.875 0.125
c p distribution  0.875 0.125
c p distribution  0.875 0.125
c p distribution  0.875 0.125
c p distribution  0.875 0.125
c p distribution  0.875 0.125
c p distribution  0.875 0.125
c p distribution  0.875 0.125
c p distribution  0.875 0.125
c p distribution  0.875 0.125
c p distribution  0.875 0.125
c p distribution  0.875 0.125
c p distribution  0.875 0.125
c p distribution  0.875 0.125
c p distribution  0.875 0.125
c p distribution  0.875 0.125
c p distribution  0.875 0.125
c p distribution  0.875 0.125
c p distribution  0.875 0.125
c p distribution  0.875 0.125
c p distribution  0.875 0.125
c p distribution  0.875 0.125
c p distribution  0.875 0.125
c p distribution  0.875 0.125
c p distribution  0.875 0.125
c p distribution  0.875 0.125
c p distribution  0.875 0.125
c p distribution  0.875 0.125
c p distribution  0.875 0.125
c p distribution  0.875 0.125
c p distribution  0.875 0.125
c p distribution  0.875 0.125
c p distribution  0.875 0.125
c p distribution  0.875 0.125
c p distribution  0.875 0.125
c p distribution  0.875 0.125
c p distribution  0.875 0.125
c p distribution  0.875 0.125
c p distribution  0.875 0.125
c p distribution  0.875 0.125
c p distribution  0.875 0.125
c p distribution  0.875 0.125
c p distribution  0.875 0.125
c p distribution  0.875 0.125
c p distribution  0.875 0.125
c p distribution  0.875 0.125
c p distribution  0.875 0.125
c p distribution  0.875 0.125
c p distribution  0.875 0.125
c p distribution  0.875 0.125
c p distribution  0.875 0.125
c p distribution  0.875 0.125
c p distribution  0.875 0.125
c p distribution  0.875 0.125
482 0
-477 0
511 -540 -1 0
540 -511 -1 0
474 -433 -3 0
433 -474 -3 0
436 -497 -5 0
497 -436 -5 0
444 -429 -7 0
429 -444 -7 0
525 -420 -9 0
420 -525 -9 0
438 -533 -11 0
533 -438 -11 0
500 -501 -13 0
501 -500 -13 0
498 -522 -15 0
522 -498 -15 0
447 -470 -17 0
470 -447 -17 0
418 -493 -19 0
493 -418 -19 0
492 -423 -21 0
423 -492 -21 0
522 -540 -23 0
540 -522 -23 0
487 -509 -25 0
509 -487 -25 0
446 -516 -27 0
516 -446 -27 0
427 -457 -29 0
457 -427 -29 0
525 -493 -31 0
493 -525 -31 0
417 -522 -33 0
522 -417 -33 0
422 -456 -35 0
456 -422 -35 0
421 -507 -37 0
507 -421 -37 0
490 -437 -39 0
437 -490 -39 0
424 -460 -41 0
460 -424 -41 0
445 -540 -43 0
540 -445 -43 0
451 -524 -45 0
524 -451 -45 0
472 -503 -47 0
503 -472 -47 0
507 -430 -49 0
430 -507 -49 0
501 -506 -51 0
506 -501 -51 0
531 -530 -53 0
530 -531 -53 0
525 -493 -55 0
493 -525 -55 0
469 -511 -57 0
511 -469 -57 0
489 -505 -59 0
505 -489 -59 0
534 -527 -61 0
527 -534 -61 0
435 -459 -63 0
459 -435 -63 0
435 -508 -65 0
508 -435 -65 0
466 -452 -67 0
452 -466 -67 0
482 -464 -69 0
464 -482 -69 0
532 -466 -71 0
466 -532 -71 0
500 -543 -73 0
543 -500 -73 0
503 -459 -75 0
459 -503 -75 0
515 -541 -77 0
541 -515 -77 0
417 -447 -79 0
447 -417 -79 0
516 -470 -81 0
470 -516 -81 0
426 -514 -83 0
514 -426 -83 0
449 -530 -85 0
530 -449 -85 0
417 -516 -87 0
516 -417 -87 0
467 -499 -89 0
499 -467 -89 0
497 -473 -91 0
473 -497 -91 0
505 -492 -93 0
492 -505 -93 0
485 -515 -95 0
515 -485 -95 0
449 -416 -97 0
416 -449 -97 0
481 -416 -99 0
416 -481 -99 0
518 -442 -101 0
442 -518 -101 0
536 -453 -103 0
453 -536 -103 0
412 -488 -105 0
488 -412 -105 0
429 -419 -107 0
419 -429 -107 0
466 -531 -109 0
531 -466 -109 0
528 -470 -111 0
470 -528 -111 0
474 -496 -113 0
496 -474 -113 0
512 -445 -115 0
445 -512 -115 0
478 -455 -117 0
455 -478 -117 0
492 -432 -119 0
432 -492 -119 0
480 -541 -121 0
541 -480 -121 0
476 -471 -123 0
471 -476 -123 0
512 -469 -125 0
469 -512 -125 0
458 -536 -127 0
536 -458 -127 0
432 -536 -129 0
536 -432 -129 0
463 -509 -131 0
509 -463 -131 0
423 -432 -133 0
432 -423 -133 0
470 -481 -135 0
481 -470 -135 0
483 -420 -137 0
420 -483 -137 0
543 -500 -139 0
500 -543 -139 0
480 -479 -141 0
479 -480 -141 0
466 -520 -143 0
520 -466 -143 0
471 -494 -145 0
494 -471 -145 0
538 -418 -147 0
418 -538 -147 0
415 -511 -149 0
511 -415 -149 0
518 -442 -151 0
442 -518 -151 0
529 -455 -153 0
455 -529 -153 0
501 -412 -155 0
412 -501 -155 0
492 -539 -157 0
539 -492 -157 0
522 -416 -159 0
416 -522 -159 0
527 -424 -161 0
424 -527 -161 0
513 -485 -163 0
485 -513 -163 0
438 -471 -165 0
471 -438 -165 0
449 -526 -167 0
526 -449 -167 0
519 -502 -169 0
502 -519 -169 0
466 -532 -171 0
532 -466 -171 0
490 -539 -173 0
539 -490 -173 0
466 -520 -175 0
520 -466 -175 0
456 -422 -177 0
422 -456 -177 0
479 -541 -179 0
541 -479 -179 0
449 -484 -181 0
484 -449 -181 0
465 -517 -183 0
517 -465 -183 0
449 -416 -185 0
416 -449 -185 0
421 -477 -187 0
477 -421 -187 0
417 -483 -189 0
483 -417 -189 0
414 -529 -191 0
529 -414 -191 0
520 -441 -193 0
441 -520 -193 0
538 -418 -195 0
418 -538 -195 0
519 -436 -197 0
436 -519 -197 0
466 -484 -199 0
484 -466 -199 0
425 -411 -201 0
411 -425 -201 0
417 -525 -203 0
525 -417 -203 0
532 -466 -205 0
466 -532 -205 0
500 -543 -207 0
543 -500 -207 0
441 -435 -209 0
435 -441 -209 0
472 -535 -211 0
535 -472 -211 0
417 -522 -213 0
522 -417 -213 0
512 -452 -215 0
452 -512 -215 0
528 -470 -217 0
470 -528 -217 0
427 -516 -219 0
516 -427 -219 0
417 -413 -221 0
413 -417 -221 0
518 -523 -223 0
523 -518 -223 0
515 -510 -225 0
510 -515 -225 0
451 -521 -227 0
521 -451 -227 0
462 -416 -229 0
416 -462 -229 0
482 -526 -231 0
526 -482 -231 0
494 -452 -233 0
452 -494 -233 0
534 -491 -235 0
491 -534 -235 0
421 -507 -237 0
507 -421 -237 0
470 -416 -239 0
416 -470 -239 0
458 -427 -241 0
427 -458 -241 0
442 -535 -243 0
535 -442 -243 0
529 -478 -245 0
478 -529 -245 0
449 -530 -247 0
530 -449 -247 0
466 -518 -249 0
518 -466 -249 0
504 -441 -251 0
441 -504 -251 0
537 -479 -253 0
479 -537 -253 0
504 -441 -255 0
441 -504 -255 0
491 -497 -257 0
497 -491 -257 0
486 -505 -259 0
505 -486 -259 0
472 -459 -261 0
459 -472 -261 0
496 -433 -263 0
433 -496 -263 0
449 -459 -265 0
459 -449 -265 0
511 -522 -267 0
522 -511 -267 0
524 -521 -269 0
521 -524 -269 0
495 -492 -271 0
492 -495 -271 0
516 -470 -273 0
470 -516 -273 0
430 -440 -275 0
440 -430 -275 0
511 -415 -277 0
415 -511 -277 0
494 -452 -279 0
452 -494 -279 0
536 -453 -281 0
453 -536 -281 0
448 -491 -283 0
491 -448 -283 0
468 -523 -285 0
523 -468 -285 0
432 -536 -287 0
536 -432 -287 0
482 -464 -289 0
464 -482 -289 0
472 -535 -291 0
535 -472 -291 0
438 -533 -293 0
533 -438 -293 0
422 -477 -295 0
477 -422 -295 0
441 -508 -297 0
508 -441 -297 0
427 -516 -299 0
516 -427 -299 0
418 -440 -301 0
440 -418 -301 0
428 -437 -303 0
437 -428 -303 0
427 -457 -305 0
457 -427 -305 0
506 -513 -307 0
513 -506 -307 0
436 -475 -309 0
475 -436 -309 0
449 -467 -311 0
467 -449 -311 0
447 -413 -313 0
413 -447 -313 0
461 -521 -315 0
521 -461 -315 0
431 -528 -317 0
528 -431 -317 0
421 -477 -319 0
477 -421 -319 0
490 -514 -321 0
514 -490 -321 0
464 -449 -323 0
449 -464 -323 0
492 -488 -325 0
488 -492 -325 0
421 -507 -327 0
507 -421 -327 0
539 -437 -329 0
437 -539 -329 0
536 -433 -331 0
433 -536 -331 0
439 -437 -333 0
437 -439 -333 0
466 -532 -335 0
532 -466 -335 0
449 -499 -337 0
499 -449 -337 0
427 -433 -339 0
433 -427 -339 0
518 -442 -341 0
442 -518 -341 0
507 -430 -343 0
430 -507 -343 0
421 -507 -345 0
507 -421 -345 0
522 -454 -347 0
454 -522 -347 0
466 -520 -349 0
520 -466 -349 0
489 -495 -351 0
495 -489 -351 0
472 -503 -353 0
503 -472 -353 0
430 -498 -355 0
498 -430 -355 0
483 -420 -357 0
420 -483 -357 0
425 -486 -359 0
486 -425 -359 0
459 -508 -361 0
508 -459 -361 0
506 -524 -363 0
524 -506 -363 0
449 -459 -365 0
459 -449 -365 0
542 -525 -367 0
525 -542 -367 0
500 -543 -369 0
543 -500 -369 0
506 -461 -371 0
461 -506 -371 0
426 -527 -373 0
527 -426 -373 0
454 -487 -375 0
487 -454 -375 0
482 -526 -377 0
526 -482 -377 0
451 -500 -379 0
500 -451 -379 0
538 -543 -381 0
543 -538 -381 0
460 -425 -383 0
425 -460 -383 0
444 -468 -385 0
468 -444 -385 0
412 -446 -387 0
446 -412 -387 0
505 -495 -389 0
495 -505 -389 0
467 -499 -391 0
499 -467 -391 0
422 -477 -393 0
477 -422 -393 0
446 -488 -395 0
488 -446 -395 0
456 -510 -397 0
510 -456 -397 0
418 -493 -399 0
493 -418 -399 0
486 -502 -401 0
502 -486 -401 0
449 -484 -403 0
484 -449 -403 0
431 -528 -405 0
528 -431 -405 0
421 -507 -407 0
507 -421 -407 0
434 -475 -409 0
475 -434 -409 0

